unknown_system
 1.00
 2.825   2.825   0.0
 0.0   2.825   2.825
 2.825   0.0   2.825
  Ga  As  
  1  1  
Direct
0.0  0.0  0.0   Ga
 0.25   0.25   0.25   As
